7
2147483647 89 47 45 47 10 18 
89 2147483647 9 18 56 28 32 
47 9 2147483647 7 4 86 21 
45 18 7 2147483647 81 1 40 
47 56 4 81 2147483647 21 59 
10 28 86 1 21 2147483647 8 
18 32 21 40 59 8 2147483647 
